Problem:    mvcp
Rows:       28
Columns:    19 (19 integer, 19 binary)
Non-zeros:  73
Status:     INTEGER OPTIMAL
Objective:  z = 6 (MINimum)

   No.   Row name        Activity     Lower bound   Upper bound
------ ------------    ------------- ------------- -------------
     1 cov[a1,b1]                  1             1               
     2 cov[b1,c1]                  1             1               
     3 cov[a1,b2]                  1             1               
     4 cov[b2,c2]                  1             1               
     5 cov[a2,b3]                  1             1               
     6 cov[b3,c3]                  1             1               
     7 cov[a2,b4]                  1             1               
     8 cov[b4,c4]                  1             1               
     9 cov[a3,b5]                  1             1               
    10 cov[b5,c5]                  1             1               
    11 cov[a3,b6]                  1             1               
    12 cov[b6,c6]                  1             1               
    13 cov[a4,b1]                  1             1               
    14 cov[a4,b2]                  1             1               
    15 cov[a4,b3]                  1             1               
    16 cov[a5,b4]                  1             1               
    17 cov[a5,b5]                  1             1               
    18 cov[a5,b6]                  1             1               
    19 cov[a6,b1]                  1             1               
    20 cov[a6,b2]                  1             1               
    21 cov[a6,b3]                  1             1               
    22 cov[a6,b4]                  1             1               
    23 cov[a7,b2]                  1             1               
    24 cov[a7,b3]                  1             1               
    25 cov[a7,b4]                  1             1               
    26 cov[a7,b5]                  1             1               
    27 cov[a7,b6]                  1             1               
    28 z                           6                             

   No. Column name       Activity     Lower bound   Upper bound
------ ------------    ------------- ------------- -------------
     1 x[a1]        *              0             0             1 
     2 x[b1]        *              1             0             1 
     3 x[c1]        *              0             0             1 
     4 x[b2]        *              1             0             1 
     5 x[c2]        *              0             0             1 
     6 x[a2]        *              0             0             1 
     7 x[b3]        *              1             0             1 
     8 x[c3]        *              0             0             1 
     9 x[b4]        *              1             0             1 
    10 x[c4]        *              0             0             1 
    11 x[a3]        *              0             0             1 
    12 x[b5]        *              1             0             1 
    13 x[c5]        *              0             0             1 
    14 x[b6]        *              1             0             1 
    15 x[c6]        *              0             0             1 
    16 x[a4]        *              0             0             1 
    17 x[a5]        *              0             0             1 
    18 x[a6]        *              0             0             1 
    19 x[a7]        *              0             0             1 

Integer feasibility conditions:

KKT.PE: max.abs.err = 0.00e+00 on row 0
        max.rel.err = 0.00e+00 on row 0
        High quality

KKT.PB: max.abs.err = 0.00e+00 on row 0
        max.rel.err = 0.00e+00 on row 0
        High quality

End of output
